50

100 3 300
99 31 298
94 4 283
92 17 291
92 36 285
92 39 277
89 44 288
88 22 267
85 14 285
83 16 288
83 37 293
80 38 294
79 7 258
79 31 252
79 38 258
79 27 280
77 16 258
74 15 272
74 36 235
73 26 254
71 16 278
70 15 227
69 19 266
68 1 229
65 19 257
62 6 219
62 30 215
62 17 223
61 6 270
61 29 234
58 17 200
56 25 244
56 26 217
55 23 291
55 26 204
55 6 255
48 8 279
47 4 180
46 17 256
46 13 297
44 1 198
43 21 277
43 14 143
43 7 253
40 8 142
40 4 153
36 2 213
35 3 141
32 8 195
30 1 296
